149
1000
63
141
23
5
214
106
107
346
196
473
428
263
211
185
11
269
97
65
119
300
419
54
196
160
2
82
182
117
355
205
321
118
115
56
417
74
182
56
146
375
274
268
64
278
289
75
10
110
381
154
101
303
89
212
459
1
139
343
278
8
363
93
368
288
405
354
182
19
166
306
30
312
19
391
455
310
272
66
142
18
86
381
9
432
226
141
451
48
197
80
325
405
13
344
186
183
162
335
323
69
77
278
54
52
48
159
297
84
78
136
387
312
78
271
278
434
45
362
193
462
190
1
354
108
46
246
437
324
73
61
133
202
487
287
117
48
128
113
382
66
326
168
246
211
424
44
334
70
244
